NAME : XML100_3246_22
DIMENSION : 101
NB_CLUSTERS : 5
CLUSTERING_ALG : KMedoids
CLUSTERING_PARAMS : k(4)
CLUSTERS
1 0
2 4 12 27 29 47 48 51 58 67 74 77 79
3 1 9 14 19 22 23 25 26 32 34 36 40 49 53 54 55 56 60 64 68 71 82 86 88 93 97
4 5 8 11 16 20 21 33 39 46 50 63 69 70 73 78 80 90 96 99
5 2 3 6 7 10 13 15 17 18 24 28 30 31 35 37 38 41 42 43 44 45 52 57 59 61 62 65 66 72 75 76 81 83 84 85 87 89 91 92 94 95 98 100
EOF